; SWAP1 DUP2 SWAP1 CALLER SWAP1 => CALLER DUP2 SWAP3
(set-option :produce-proofs true)
; 
(set-info :status unknown)
(declare-fun storage_t ((_ BitVec 256) (_ BitVec 256) (_ BitVec 256) Int (_ BitVec 256)) (_ BitVec 256))
(declare-fun storage_s ((_ BitVec 256) (_ BitVec 256) (_ BitVec 256) Int (_ BitVec 256)) (_ BitVec 256))
(declare-fun exc_halt_t (Int) Bool)
(declare-fun exc_halt_s (Int) Bool)
(declare-fun stack_t ((_ BitVec 256) (_ BitVec 256) (_ BitVec 256) Int (_ BitVec 6)) (_ BitVec 256))
(declare-fun stack_s ((_ BitVec 256) (_ BitVec 256) (_ BitVec 256) Int (_ BitVec 6)) (_ BitVec 256))
(declare-fun sc_t (Int) (_ BitVec 6))
(declare-fun sc_s (Int) (_ BitVec 6))
(declare-fun used_gas_t ((_ BitVec 256) (_ BitVec 256) (_ BitVec 256) Int) Int)
(declare-fun used_gas_s ((_ BitVec 256) (_ BitVec 256) (_ BitVec 256) Int) Int)
(assert
 (exists ((x_0 (_ BitVec 256)) (x_1 (_ BitVec 256)) (x_CALLER (_ BitVec 256)) )(let (($x2724 (forall ((w (_ BitVec 256)) )(let ((?x1846 (storage_t x_0 x_1 x_CALLER 3 w)))
 (let ((?x11630 (storage_s x_0 x_1 x_CALLER 5 w)))
 (= ?x11630 ?x1846))))
 ))
 (let (($x5429 (exc_halt_t 3)))
 (let (($x1862 (exc_halt_s 5)))
 (let (($x3022 (= $x1862 $x5429)))
 (let (($x1573 (forall ((n (_ BitVec 6)) )(let ((?x4791 (stack_t x_0 x_1 x_CALLER 3 n)))
 (let ((?x627 (stack_s x_0 x_1 x_CALLER 5 n)))
 (let (($x6084 (= ?x627 ?x4791)))
 (let ((?x7621 (sc_t 3)))
 (let (($x438 (bvsle ?x7621 n)))
 (or $x438 $x6084)))))))
 ))
 (let ((?x7621 (sc_t 3)))
 (let ((?x4319 (sc_s 5)))
 (let (($x3981 (= ?x4319 ?x7621)))
 (let ((?x4890 (used_gas_t x_0 x_1 x_CALLER 0)))
 (let ((?x7103 (used_gas_s x_0 x_1 x_CALLER 0)))
 (let (($x4162 (= ?x7103 ?x4890)))
 (let (($x10443 (forall ((w (_ BitVec 256)) )(let ((?x8696 (storage_t x_0 x_1 x_CALLER 0 w)))
 (let ((?x11812 (storage_s x_0 x_1 x_CALLER 0 w)))
 (= ?x11812 ?x8696))))
 ))
 (let (($x56 (exc_halt_t 0)))
 (let (($x57 (exc_halt_s 0)))
 (let (($x58 (= $x57 $x56)))
 (let (($x7961 (forall ((n (_ BitVec 6)) )(let ((?x63 (sc_t 0)))
 (let (($x11318 (bvsle ?x63 n)))
 (let ((?x11058 (stack_t x_0 x_1 x_CALLER 0 n)))
 (let ((?x9688 (stack_s x_0 x_1 x_CALLER 0 n)))
 (let (($x2867 (= ?x9688 ?x11058)))
 (or $x2867 $x11318)))))))
 ))
 (let ((?x63 (sc_t 0)))
 (let ((?x72 (sc_s 0)))
 (let (($x73 (= ?x72 ?x63)))
 (let (($x5589 (= $x5429 (or (exc_halt_t 2) (not (bvsle (_ bv0 6) (bvadd (_ bv60 6) (sc_t 2))))))))
 (let (($x3963 (forall ((w (_ BitVec 256)) )(let ((?x10167 (storage_t x_0 x_1 x_CALLER 2 w)))
 (let ((?x1846 (storage_t x_0 x_1 x_CALLER 3 w)))
 (= ?x1846 ?x10167))))
 ))
 (let (($x2802 (forall ((n (_ BitVec 6)) )(let ((?x8486 (stack_t x_0 x_1 x_CALLER 2 n)))
 (let ((?x4791 (stack_t x_0 x_1 x_CALLER 3 n)))
 (let (($x8916 (= ?x4791 ?x8486)))
 (let ((?x8890 (sc_t 2)))
 (let ((?x5041 (bvadd (_ bv60 6) ?x8890)))
 (let (($x6626 (bvsle ?x5041 n)))
 (or $x6626 $x8916))))))))
 ))
 (let ((?x8890 (sc_t 2)))
 (let (($x5385 (= ?x7621 ?x8890)))
 (let ((?x2091 (used_gas_t x_0 x_1 x_CALLER 3)))
 (let (($x5533 (= ?x2091 (+ 3 (used_gas_t x_0 x_1 x_CALLER 2)))))
 (let ((?x4746 (bvadd (_ bv62 6) ?x8890)))
 (let ((?x7885 (stack_t x_0 x_1 x_CALLER 2 ?x4746)))
 (let ((?x150 (bvadd (_ bv62 6) ?x7621)))
 (let ((?x9785 (stack_t x_0 x_1 x_CALLER 3 ?x150)))
 (let (($x220 (= ?x9785 ?x7885)))
 (let ((?x4371 (bvadd (_ bv61 6) ?x8890)))
 (let ((?x7829 (stack_t x_0 x_1 x_CALLER 2 ?x4371)))
 (let (($x9291 (= (stack_t x_0 x_1 x_CALLER 3 (bvadd (_ bv61 6) ?x7621)) ?x7829)))
 (let ((?x6760 (bvadd (_ bv63 6) ?x8890)))
 (let ((?x11396 (stack_t x_0 x_1 x_CALLER 2 ?x6760)))
 (let (($x3902 (= (stack_t x_0 x_1 x_CALLER 3 (bvadd (_ bv60 6) ?x7621)) ?x11396)))
 (let ((?x9251 (bvadd (_ bv63 6) ?x7621)))
 (let ((?x248 (stack_t x_0 x_1 x_CALLER 3 ?x9251)))
 (let (($x1784 (= ?x248 (stack_t x_0 x_1 x_CALLER 2 (bvadd (_ bv60 6) ?x8890)))))
 (let (($x11985 (exc_halt_t 1)))
 (let (($x9060 (or (not (= ((_ extract 6 6) (bvadd (_ bv1 7) (concat (_ bv0 1) (sc_t 1)))) (_ bv0 1))) (not (bvsle (_ bv0 6) (bvadd (_ bv62 6) (sc_t 1)))) $x11985)))
 (let (($x7505 (exc_halt_t 2)))
 (let (($x3926 (= $x7505 $x9060)))
 (let (($x3589 (forall ((w (_ BitVec 256)) )(let ((?x2009 (storage_t x_0 x_1 x_CALLER 1 w)))
 (let ((?x10167 (storage_t x_0 x_1 x_CALLER 2 w)))
 (= ?x10167 ?x2009))))
 ))
 (let (($x7994 (forall ((n (_ BitVec 6)) )(let ((?x4554 (sc_t 1)))
 (let ((?x2315 (bvadd (_ bv62 6) ?x4554)))
 (let (($x8517 (bvsle ?x2315 n)))
 (let ((?x984 (stack_t x_0 x_1 x_CALLER 1 n)))
 (let ((?x8486 (stack_t x_0 x_1 x_CALLER 2 n)))
 (let (($x5629 (= ?x8486 ?x984)))
 (or $x5629 $x8517))))))))
 ))
 (let (($x422 (= ?x8890 (bvadd (_ bv1 6) (sc_t 1)))))
 (let ((?x9021 (used_gas_t x_0 x_1 x_CALLER 2)))
 (let (($x649 (= ?x9021 (+ 3 (used_gas_t x_0 x_1 x_CALLER 1)))))
 (let ((?x4554 (sc_t 1)))
 (let ((?x6802 (bvadd (_ bv63 6) ?x4554)))
 (let ((?x9252 (stack_t x_0 x_1 x_CALLER 1 ?x6802)))
 (let (($x3079 (= (stack_t x_0 x_1 x_CALLER 2 ?x6802) ?x9252)))
 (let ((?x2315 (bvadd (_ bv62 6) ?x4554)))
 (let ((?x7245 (stack_t x_0 x_1 x_CALLER 1 ?x2315)))
 (let (($x4693 (= (stack_t x_0 x_1 x_CALLER 2 ?x2315) ?x7245)))
 (let (($x9577 (= ?x11396 ?x7245)))
 (let (($x6702 (= $x11985 (or $x56 (not (= ((_ extract 6 6) (bvadd (_ bv1 7) (concat (_ bv0 1) ?x63))) (_ bv0 1)))))))
 (let (($x7292 (forall ((w (_ BitVec 256)) )(let ((?x8696 (storage_t x_0 x_1 x_CALLER 0 w)))
 (let ((?x2009 (storage_t x_0 x_1 x_CALLER 1 w)))
 (= ?x2009 ?x8696))))
 ))
 (let (($x3388 (forall ((n (_ BitVec 6)) )(let ((?x63 (sc_t 0)))
 (let (($x11318 (bvsle ?x63 n)))
 (let ((?x11058 (stack_t x_0 x_1 x_CALLER 0 n)))
 (let ((?x984 (stack_t x_0 x_1 x_CALLER 1 n)))
 (let (($x9435 (= ?x984 ?x11058)))
 (or $x9435 $x11318)))))))
 ))
 (let (($x2096 (= ?x4554 (bvadd (_ bv1 6) ?x63))))
 (let ((?x9316 (used_gas_t x_0 x_1 x_CALLER 1)))
 (let (($x1708 (= ?x9316 (+ 2 ?x4890))))
 (let (($x1619 (= (stack_t x_0 x_1 x_CALLER 1 ?x63) x_CALLER)))
 (let (($x9525 (= $x1862 (or (exc_halt_s 4) (not (bvsle (_ bv0 6) (bvadd (_ bv62 6) (sc_s 4))))))))
 (let (($x862 (forall ((w (_ BitVec 256)) )(let ((?x2114 (storage_s x_0 x_1 x_CALLER 4 w)))
 (let ((?x11630 (storage_s x_0 x_1 x_CALLER 5 w)))
 (= ?x11630 ?x2114))))
 ))
 (let (($x9296 (forall ((n (_ BitVec 6)) )(let ((?x9433 (sc_s 4)))
 (let ((?x11364 (bvadd (_ bv62 6) ?x9433)))
 (let (($x6445 (bvsle ?x11364 n)))
 (let ((?x6018 (stack_s x_0 x_1 x_CALLER 4 n)))
 (let ((?x627 (stack_s x_0 x_1 x_CALLER 5 n)))
 (or (= ?x627 ?x6018) $x6445)))))))
 ))
 (let ((?x9433 (sc_s 4)))
 (let (($x1752 (= ?x4319 ?x9433)))
 (let ((?x8609 (used_gas_s x_0 x_1 x_CALLER 5)))
 (let (($x7748 (= ?x8609 (+ 3 (used_gas_s x_0 x_1 x_CALLER 4)))))
 (let ((?x3395 (bvadd (_ bv63 6) ?x9433)))
 (let ((?x9593 (stack_s x_0 x_1 x_CALLER 4 ?x3395)))
 (let ((?x3570 (bvadd (_ bv62 6) ?x4319)))
 (let ((?x8373 (stack_s x_0 x_1 x_CALLER 5 ?x3570)))
 (let ((?x11364 (bvadd (_ bv62 6) ?x9433)))
 (let ((?x10268 (stack_s x_0 x_1 x_CALLER 4 ?x11364)))
 (let ((?x9002 (bvadd (_ bv63 6) ?x4319)))
 (let ((?x2024 (stack_s x_0 x_1 x_CALLER 5 ?x9002)))
 (let (($x10607 (= ?x2024 ?x10268)))
 (let (($x1963 (not (= ((_ extract 6 6) (bvadd (_ bv1 7) (concat (_ bv0 1) (sc_s 3)))) (_ bv0 1)))))
 (let (($x8103 (exc_halt_s 3)))
 (let (($x9175 (exc_halt_s 4)))
 (let (($x5783 (forall ((w (_ BitVec 256)) )(let ((?x2107 (storage_s x_0 x_1 x_CALLER 3 w)))
 (let ((?x2114 (storage_s x_0 x_1 x_CALLER 4 w)))
 (= ?x2114 ?x2107))))
 ))
 (let (($x2651 (forall ((n (_ BitVec 6)) )(let ((?x3167 (stack_s x_0 x_1 x_CALLER 3 n)))
 (let ((?x6018 (stack_s x_0 x_1 x_CALLER 4 n)))
 (let (($x1023 (= ?x6018 ?x3167)))
 (or $x1023 (bvsle (sc_s 3) n))))))
 ))
 (let (($x2843 (= ?x9433 (bvadd (_ bv1 6) (sc_s 3)))))
 (let ((?x4562 (used_gas_s x_0 x_1 x_CALLER 4)))
 (let (($x4380 (= $x8103 (or (exc_halt_s 2) (not (bvsle (_ bv0 6) (bvadd (_ bv62 6) (sc_s 2))))))))
 (let (($x7802 (forall ((w (_ BitVec 256)) )(let ((?x11677 (storage_s x_0 x_1 x_CALLER 2 w)))
 (let ((?x2107 (storage_s x_0 x_1 x_CALLER 3 w)))
 (= ?x2107 ?x11677))))
 ))
 (let (($x8090 (forall ((n (_ BitVec 6)) )(let ((?x2272 (sc_s 2)))
 (let ((?x7947 (bvadd (_ bv62 6) ?x2272)))
 (let (($x7062 (bvsle ?x7947 n)))
 (let ((?x5581 (stack_s x_0 x_1 x_CALLER 2 n)))
 (let ((?x3167 (stack_s x_0 x_1 x_CALLER 3 n)))
 (let (($x3205 (= ?x3167 ?x5581)))
 (or $x3205 $x7062))))))))
 ))
 (let ((?x2272 (sc_s 2)))
 (let ((?x3851 (sc_s 3)))
 (let (($x5381 (= ?x3851 ?x2272)))
 (let ((?x8669 (used_gas_s x_0 x_1 x_CALLER 3)))
 (let (($x5353 (= ?x8669 (+ 3 (used_gas_s x_0 x_1 x_CALLER 2)))))
 (let ((?x9000 (bvadd (_ bv63 6) ?x2272)))
 (let ((?x6506 (stack_s x_0 x_1 x_CALLER 2 ?x9000)))
 (let ((?x8089 (bvadd (_ bv62 6) ?x3851)))
 (let ((?x9845 (stack_s x_0 x_1 x_CALLER 3 ?x8089)))
 (let (($x5455 (= ?x9845 ?x6506)))
 (let ((?x7947 (bvadd (_ bv62 6) ?x2272)))
 (let ((?x1223 (stack_s x_0 x_1 x_CALLER 2 ?x7947)))
 (let ((?x1738 (bvadd (_ bv63 6) ?x3851)))
 (let ((?x4407 (stack_s x_0 x_1 x_CALLER 3 ?x1738)))
 (let (($x907 (= ?x4407 ?x1223)))
 (let (($x8780 (exc_halt_s 1)))
 (let (($x3429 (or (not (bvsle (_ bv0 6) (bvadd (_ bv62 6) (sc_s 1)))) (not (= ((_ extract 6 6) (bvadd (_ bv1 7) (concat (_ bv0 1) (sc_s 1)))) (_ bv0 1))) $x8780)))
 (let (($x10052 (exc_halt_s 2)))
 (let (($x5382 (= $x10052 $x3429)))
 (let (($x11420 (forall ((w (_ BitVec 256)) )(let ((?x565 (storage_s x_0 x_1 x_CALLER 1 w)))
 (let ((?x11677 (storage_s x_0 x_1 x_CALLER 2 w)))
 (= ?x11677 ?x565))))
 ))
 (let (($x4990 (forall ((n (_ BitVec 6)) )(let ((?x154 (sc_s 1)))
 (let ((?x8244 (bvadd (_ bv62 6) ?x154)))
 (let (($x6954 (bvsle ?x8244 n)))
 (let ((?x7318 (stack_s x_0 x_1 x_CALLER 1 n)))
 (let ((?x5581 (stack_s x_0 x_1 x_CALLER 2 n)))
 (let (($x6524 (= ?x5581 ?x7318)))
 (or $x6524 $x6954))))))))
 ))
 (let (($x9417 (= ?x2272 (bvadd (_ bv1 6) (sc_s 1)))))
 (let ((?x604 (used_gas_s x_0 x_1 x_CALLER 2)))
 (let (($x3409 (= ?x604 (+ 3 (used_gas_s x_0 x_1 x_CALLER 1)))))
 (let ((?x154 (sc_s 1)))
 (let ((?x1791 (bvadd (_ bv63 6) ?x154)))
 (let ((?x8994 (stack_s x_0 x_1 x_CALLER 1 ?x1791)))
 (let ((?x8244 (bvadd (_ bv62 6) ?x154)))
 (let ((?x10183 (stack_s x_0 x_1 x_CALLER 1 ?x8244)))
 (let (($x7140 (= $x8780 (or $x57 (not (bvsle (_ bv0 6) (bvadd (_ bv62 6) ?x72)))))))
 (let (($x7244 (forall ((w (_ BitVec 256)) )(let ((?x11812 (storage_s x_0 x_1 x_CALLER 0 w)))
 (let ((?x565 (storage_s x_0 x_1 x_CALLER 1 w)))
 (= ?x565 ?x11812))))
 ))
 (let (($x11372 (forall ((n (_ BitVec 6)) )(let ((?x9688 (stack_s x_0 x_1 x_CALLER 0 n)))
 (let ((?x7318 (stack_s x_0 x_1 x_CALLER 1 n)))
 (let (($x11535 (= ?x7318 ?x9688)))
 (let ((?x72 (sc_s 0)))
 (let ((?x10468 (bvadd (_ bv62 6) ?x72)))
 (let (($x2129 (bvsle ?x10468 n)))
 (or $x2129 $x11535))))))))
 ))
 (let (($x9780 (= ?x154 ?x72)))
 (let ((?x5650 (used_gas_s x_0 x_1 x_CALLER 1)))
 (let (($x11281 (= ?x5650 (+ 3 ?x7103))))
 (let ((?x10288 (bvadd (_ bv63 6) ?x72)))
 (let ((?x8145 (stack_s x_0 x_1 x_CALLER 0 ?x10288)))
 (let (($x11326 (= ?x10183 ?x8145)))
 (let (($x8755 (= ?x8994 (stack_s x_0 x_1 x_CALLER 0 (bvadd (_ bv62 6) ?x72)))))
 (let (($x6833 (forall ((w (_ BitVec 256)) )(let ((?x11812 (storage_s x_0 x_1 x_CALLER 0 w)))
 (= ?x11812 (_ bv0 256))))
 ))
 (let (($x5077 (= ?x7103 0)))
 (let (($x3971 (not $x57)))
 (let (($x5347 (= (stack_s x_0 x_1 x_CALLER 0 (_ bv1 6)) x_1)))
 (let (($x7862 (= (stack_s x_0 x_1 x_CALLER 0 (_ bv0 6)) x_0)))
 (let (($x2075 (= ?x72 (_ bv2 6))))
 (and $x2075 $x7862 $x5347 $x3971 $x5077 $x6833 $x8755 $x11326 $x11281 $x9780 $x11372 $x7244 $x7140 (= ?x6506 ?x10183) (= (stack_s x_0 x_1 x_CALLER 2 ?x8244) ?x10183) (= (stack_s x_0 x_1 x_CALLER 2 ?x1791) ?x8994) $x3409 $x9417 $x4990 $x11420 $x5382 $x907 $x5455 $x5353 $x5381 $x8090 $x7802 $x4380 (= (stack_s x_0 x_1 x_CALLER 4 ?x3851) x_CALLER) (= ?x4562 (+ 2 ?x8669)) $x2843 $x2651 $x5783 (= $x9175 (or $x8103 $x1963)) $x10607 (= ?x8373 ?x9593) $x7748 $x1752 $x9296 $x862 $x9525 $x1619 $x1708 $x2096 $x3388 $x7292 $x6702 $x9577 $x4693 $x3079 $x649 $x422 $x7994 $x3589 $x3926 $x1784 $x3902 $x9291 $x220 $x5533 $x5385 $x2802 $x3963 $x5589 $x73 $x7961 $x58 $x10443 $x4162 (not (and $x3981 $x1573 $x3022 $x2724)))))))))))))))))))))))))))))))))))))))))))))))))))))))))))))))))))))))))))))))))))))))))))))))))))))))))))))))))))))))))))))))))))))))))))
 )
(check-sat)
(get-proof)
